Route #1: 46 36 42 53 40 34 64 44
Route #2: 51 32 7 24 29 41 66 26 18
Route #3: 62 61 30 57 3 60
Route #4: 43 37 23 8 65 59 2
Route #5: 63 25 15 56 45 22 52 54 21
Route #6: 10 17 38 27 16 47
Route #7: 33 31
Route #8: 5 28 13 55 58 12
Route #9: 39 6 35 50 4 48 9
Route #10: 14 11 20 19 1 49
cost 1195.1973876953125